; benchmark generated from python API
(set-info :status unknown)
(declare-datatypes ((RealState 0)) (((RMk1 (rval1 Real)) (RMk2 (rval2 Real)))))
 (assert
 (forall ((|v11:0| Real) )(forall ((|v10:1| Real) )(forall ((|v9:2| Real) )(forall ((|v8:3| Real) )(exists ((|v7:4_st| RealState) (val!4372 Real) )(exists ((|v6:5_st| RealState) (val!4373 Real) )(exists ((|v5:6_st| RealState) (val!4374 Real) )(exists ((|v4:7_st| RealState) (val!4375 Real) )(forall ((|v3:8| Real) )(forall ((|v2:9| Real) )(forall ((|v1:10| Real) )(forall ((|v0:11| Real) )(let ((?x268 (- 12.0)))
 (let ((?x468 (rval2 |v4:7_st|)))
 (let ((?x3045 (- 14.0)))
 (let ((?x1615 (* ?x3045 ?x468)))
 (let ((?x1091 (+ (+ (+ (* 8.0 (rval2 |v7:4_st|)) (rval2 |v6:5_st|)) ?x1615) (* (- 3.0) |v11:0|))))
 (let ((?x286 (- 15.0)))
 (let ((?x2543 (* ?x286 ?x468)))
 (let ((?x2564 (+ (+ (+ (* 11.0 (rval2 |v6:5_st|)) (* (- 13.0) ?x468)) ?x2543) (* 12.0 (rval2 |v6:5_st|)))))
 (let ((?x934 (rval2 |v6:5_st|)))
 (let ((?x2770 (+ (+ (+ (* 8.0 |v3:8|) (* 5.0 (rval2 |v7:4_st|))) (* 7.0 |v0:11|)) ?x934)))
 (let ((?x930 (* 17.0 |v3:8|)))
 (let ((?x464 (+ (+ (+ (* 5.0 |v2:9|) (* (- 17.0) |v11:0|)) (* (- 16.0) |v11:0|)) ?x930)))
 (let (($x2061 (and (or (<= ?x464 8.0) (<= ?x2770 1.0)) (or (<= ?x2564 3.0) (<= ?x1091 ?x268)))))
 (let ((?x1050 (- 16.0)))
 (let ((?x2927 (* 11.0 |v11:0|)))
 (let (($x1888 (<= (+ (+ (+ |v1:10| (* 2.0 ?x934)) (* (- 11.0) (rval2 |v5:6_st|))) ?x2927) ?x1050)))
 (let (($x2584 (and $x1888 (<= (+ (+ (+ (* 9.0 |v0:11|) ?x2543) ?x930) (* ?x268 |v10:1|)) 19.0))))
 (let ((?x1857 (+ (+ (+ (* 6.0 |v9:2|) (* (- 10.0) ?x934)) (* (- 6.0) |v0:11|)) (* (- 5.0) |v9:2|))))
 (let ((?x2073 (+ (+ (+ (* 14.0 |v3:8|) ?x1615) (* (- 13.0) |v8:3|)) (* (- 8.0) ?x468))))
 (let ((?x1719 (* ?x286 |v2:9|)))
 (let ((?x1712 (+ (+ (+ (* (- 13.0) |v9:2|) (* 2.0 ?x934)) (* (- 7.0) |v1:10|)) ?x1719)))
 (let ((?x1653 (+ (+ (+ (* 19.0 |v1:10|) (* ?x1050 |v9:2|)) (* (- 18.0) |v8:3|)) (* (- 7.0) (rval2 |v5:6_st|)))))
 (let (($x450 (<= (+ (+ (+ (* (- 13.0) |v3:8|) |v9:2|) (* 20.0 |v10:1|)) |v3:8|) 12.0)))
 (let (($x891 (and (or $x450 (<= ?x1653 20.0)) (or (<= ?x1712 20.0) (<= ?x2073 16.0)))))
 (let ((?x3188 (* 6.0 |v0:11|)))
 (let ((?x1711 (rval2 |v5:6_st|)))
 (let ((?x470 (* ?x268 ?x1711)))
 (let (($x1933 (<= (+ (+ (+ (* 5.0 |v3:8|) (* (- 6.0) (rval2 |v7:4_st|))) ?x470) ?x3188) 9.0)))
 (let ((?x2930 (- 2.0)))
 (let (($x2099 (<= (+ (+ (+ (* 15.0 ?x934) (* ?x1050 |v8:3|)) |v11:0|) (* (- 19.0) |v2:9|)) ?x2930)))
 (let ((?x2514 (- 20.0)))
 (let ((?x1944 (- 13.0)))
 (let ((?x313 (* ?x1944 ?x468)))
 (let ((?x1650 (+ (+ (+ (* (- 4.0) |v1:10|) (* (- 19.0) |v2:9|)) (* ?x1050 ?x468)) ?x313)))
 (let (($x831 (and (and (or (and (<= ?x1650 ?x2514) $x2099) $x1933) $x891) (and (and (<= ?x1857 13.0) $x2584) $x2061))))
 (let ((?x760 (rval2 |v7:4_st|)))
 (let ((?x1628 (- 10.0)))
 (let ((?x337 (* ?x1628 ?x760)))
 (let (($x2375 (<= (+ (+ (+ (* ?x1944 ?x934) (* (- 6.0) |v11:0|)) (* 5.0 |v10:1|)) ?x337) 16.0)))
 (let ((?x977 (- 4.0)))
 (let ((?x146 (* ?x977 |v0:11|)))
 (let (($x726 (<= (+ (+ (+ (* 4.0 |v11:0|) (* (- 18.0) ?x468)) ?x337) ?x146) 7.0)))
 (let ((?x1055 (+ (+ (+ (* 0.0 |v0:11|) (* (- 5.0) |v11:0|)) (* ?x977 ?x934)) (* (- 19.0) |v8:3|))))
 (let ((?x24 (* 8.0 |v11:0|)))
 (let (($x2496 (<= (+ (+ (+ (* 2.0 ?x468) (* 20.0 ?x760)) (* 2.0 |v2:9|)) ?x24) ?x268)))
 (let ((?x1325 (- 8.0)))
 (let ((?x258 (* 16.0 ?x1711)))
 (let ((?x29 (+ (+ (+ (* 15.0 |v2:9|) (* 19.0 |v11:0|)) (* (- 11.0) |v1:10|)) ?x258)))
 (let ((?x1774 (- 11.0)))
 (let ((?x1369 (* ?x1774 ?x1711)))
 (let ((?x2192 (+ (+ (+ (* 7.0 |v1:10|) (* 18.0 |v10:1|)) (* (- 6.0) ?x1711)) ?x1369)))
 (let ((?x214 (+ (+ (+ (* ?x268 ?x468) (* ?x286 |v3:8|)) (* 5.0 |v8:3|)) (* ?x1774 |v10:1|))))
 (let ((?x3153 (+ (+ (+ (* (- 1.0) |v0:11|) (* (- 17.0) |v0:11|)) (* 0.0 |v11:0|)) (* 2.0 |v11:0|))))
 (let ((?x1546 (+ (+ (+ ?x470 (* 0.0 |v10:1|)) (* (- 7.0) |v8:3|)) (* 12.0 ?x760))))
 (let (($x2686 (or (or (<= ?x1546 15.0) (<= ?x3153 ?x1774)) (and (<= ?x214 18.0) (<= ?x2192 ?x3045)))))
 (let (($x162 (and $x2686 (and (or (<= ?x29 ?x1325) $x2496) (and (<= ?x1055 18.0) $x726)))))
 (let ((?x2324 (- 1.0)))
 (let ((?x2505 (* ?x1628 ?x934)))
 (let (($x2907 (<= (+ (+ (+ (* ?x1050 |v2:9|) (* 3.0 ?x934)) (* 9.0 ?x1711)) ?x2505) ?x2324)))
 (let ((?x2833 (* 6.0 ?x1711)))
 (let (($x454 (<= (+ (+ (+ (* ?x268 |v2:9|) (* 18.0 ?x468)) (* 10.0 ?x468)) ?x2833) 8.0)))
 (let ((?x1563 (- 18.0)))
 (let ((?x277 (- 6.0)))
 (let ((?x2433 (* ?x277 ?x760)))
 (let (($x2184 (<= (+ (+ (+ (* 10.0 |v9:2|) (* 0.0 |v3:8|)) (* 3.0 ?x468)) ?x2433) ?x1563)))
 (let ((?x2866 (* 18.0 |v3:8|)))
 (let ((?x774 (+ (+ (+ (* 8.0 ?x1711) (* (- 19.0) |v1:10|)) (* 3.0 |v0:11|)) ?x2866)))
 (let (($x2246 (<= (+ (+ (+ (* 16.0 |v2:9|) (* 10.0 |v11:0|)) (* 5.0 |v10:1|)) |v10:1|) 16.0)))
 (let (($x117 (<= (+ (+ (+ (* 11.0 ?x1711) ?x1369) (* 6.0 |v2:9|)) (* 17.0 ?x468)) ?x2930)))
 (let (($x1416 (<= (+ (+ (+ (* ?x2514 |v8:3|) |v1:10|) (* ?x1563 |v3:8|)) (* ?x2324 ?x760)) ?x1325)))
 (let (($x1285 (and (and (or $x1416 $x117) $x2246) (or (or (<= ?x774 ?x1774) $x2184) (and $x454 $x2907)))))
 (let ((?x1820 (+ (+ (+ (* (- 9.0) |v1:10|) (* 19.0 |v3:8|)) (* 9.0 ?x760)) (* ?x277 |v8:3|))))
 (let ((?x2044 (* 5.0 |v11:0|)))
 (let (($x979 (<= (+ (+ (+ (* 9.0 |v11:0|) (* 3.0 |v2:9|)) (* ?x2930 |v1:10|)) ?x2044) ?x277)))
 (let ((?x764 (* ?x277 ?x1711)))
 (let (($x3100 (<= (+ (+ (+ (* 0.0 |v9:2|) (* 13.0 |v0:11|)) (* 13.0 |v11:0|)) ?x764) 17.0)))
 (let ((?x3048 (* ?x286 |v1:10|)))
 (let ((?x2951 (+ (+ (+ (* (- 7.0) |v9:2|) (* 0.0 |v10:1|)) (* (- 5.0) |v0:11|)) ?x3048)))
 (let ((?x11 (* 0.0 |v9:2|)))
 (let (($x2128 (<= (+ (+ (+ (* ?x1563 |v3:8|) (* 19.0 |v8:3|)) (* 8.0 ?x934)) ?x11) 14.0)))
 (let ((?x596 (* 2.0 |v3:8|)))
 (let (($x197 (<= (+ (+ (+ (* ?x1774 |v8:3|) (* 14.0 |v10:1|)) (* ?x2930 |v0:11|)) ?x596) ?x1944)))
 (let ((?x137 (+ (+ (+ (* ?x1774 |v2:9|) (* ?x2930 |v3:8|)) (* 6.0 |v2:9|)) (* ?x1325 |v2:9|))))
 (let (($x1523 (<= ?x137 16.0)))
 (let ((?x1633 (- 7.0)))
 (let ((?x793 (* ?x1633 |v8:3|)))
 (let (($x2852 (<= (+ (+ (+ (* 5.0 |v0:11|) (* ?x2930 ?x1711)) (* 0.0 |v2:9|)) ?x793) ?x268)))
 (let (($x2779 (and (or (or $x2852 $x1523) (or $x197 $x2128)) (or (or (<= ?x2951 ?x2514) $x3100) (or $x979 (<= ?x1820 12.0))))))
 (let ((?x1575 (* 5.0 |v10:1|)))
 (let (($x28 (<= (+ (+ (+ (* ?x3045 ?x934) (* 3.0 ?x760)) (* 5.0 |v9:2|)) ?x1575) ?x277)))
 (let (($x3027 (not (= |v4:7_st| (RMk1 val!4375)))))
 (let (($x820 (not (= |v5:6_st| (RMk1 val!4374)))))
 (let (($x1286 (not (= |v6:5_st| (RMk1 val!4373)))))
 (let (($x2483 (not (= |v7:4_st| (RMk1 val!4372)))))
 (and $x2483 $x1286 $x820 $x3027 (and (or $x28 (and $x2779 $x1285)) (and (or $x162 $x2375) $x831))))))))))))))))))))))))))))))))))))))))))))))))))))))))))))))))))))))))))))))))))))))))))))))))))
 )
 )
 )
 )
 )
 )
 )
 )
 )
 )
 )
 )
(check-sat)
